(declare-fun e () String)
(declare-fun c () String)
(declare-fun g () String)
(declare-fun b () String)
(declare-fun d () String)
(declare-fun f () String)
(declare-fun a () String)
(assert (= (str.++ c a "g" d "b" e) (str.++ g g f)))
(assert (= (str.++ d c f e a "a") "e"))
(assert (= (str.++ "c" b "ffhd") "caah"))

(check-sat)
